c FILE /home/rafael/Documents/HappySet/MIHS/inputs/happygen/output/graph_scale_free_k7_p0.4_v50_20241127_082502.txt
c SOURCE This is a scale-free graph formed for the happy graph colouring problem.
c DESCRIPTION It was generated using the problem generator of Rhyd Lewis
c
c GRAPH STATS
c Seed                             = -895944018
c Number of Nodes                  = 50
c Number of colours k              = 7
c Number of pre-assignments        = 20
c Number of links per new node     = 5
c Density                          = 0.191837
c 
c The degrees of nodes 1 to 50, respectively, are as follows 
c [33, 22, 21, 19, 19, 19, 17, 16, 15, 15, 14, 13, 11, 11, 10, 9, 8, 8, 8, 8, 8, 7, 7, 7, 7, 7, 
c  7, 6, 6, 6, 6, 6, 6, 6, 6, 6, 5, 5, 5, 5, 5, 5, 5, 5, 5, 5, 5, 5, 5, 5] 
c  
p edge 50 235 7
e 1 2
e 1 3
e 1 4
e 1 5
e 1 6
e 1 7
e 1 8
e 1 9
e 1 11
e 1 12
e 1 13
e 1 15
e 1 16
e 1 17
e 1 19
e 1 21
e 1 22
e 1 23
e 1 25
e 1 26
e 1 28
e 1 29
e 1 30
e 1 31
e 1 32
e 1 35
e 1 37
e 1 38
e 1 40
e 1 44
e 1 45
e 1 49
e 1 50
e 2 4
e 2 5
e 2 7
e 2 8
e 2 9
e 2 11
e 2 12
e 2 13
e 2 14
e 2 19
e 2 22
e 2 26
e 2 29
e 2 31
e 2 34
e 2 37
e 2 39
e 2 40
e 2 41
e 2 43
e 2 48
e 3 4
e 3 5
e 3 6
e 3 7
e 3 10
e 3 11
e 3 12
e 3 16
e 3 17
e 3 18
e 3 20
e 3 23
e 3 27
e 3 33
e 3 36
e 3 37
e 3 42
e 3 44
e 3 46
e 3 50
e 4 5
e 4 7
e 4 8
e 4 9
e 4 10
e 4 11
e 4 13
e 4 14
e 4 15
e 4 22
e 4 23
e 4 32
e 4 37
e 4 38
e 4 42
e 4 47
e 5 6
e 5 8
e 5 9
e 5 10
e 5 11
e 5 12
e 5 14
e 5 19
e 5 21
e 5 24
e 5 28
e 5 30
e 5 33
e 5 46
e 5 50
e 6 7
e 6 8
e 6 13
e 6 16
e 6 17
e 6 18
e 6 20
e 6 21
e 6 24
e 6 27
e 6 28
e 6 33
e 6 39
e 6 45
e 6 48
e 6 50
e 7 8
e 7 10
e 7 11
e 7 15
e 7 17
e 7 20
e 7 39
e 7 41
e 7 47
e 7 48
e 7 49
e 7 50
e 8 11
e 8 13
e 8 14
e 8 15
e 8 16
e 8 22
e 8 30
e 8 33
e 8 34
e 8 46
e 9 12
e 9 17
e 9 23
e 9 24
e 9 28
e 9 30
e 9 31
e 9 35
e 9 36
e 9 39
e 9 41
e 10 13
e 10 18
e 10 25
e 10 26
e 10 29
e 10 31
e 10 32
e 10 38
e 10 40
e 10 41
e 10 42
e 11 12
e 11 16
e 11 22
e 11 25
e 11 27
e 11 34
e 11 36
e 12 24
e 12 26
e 12 35
e 12 38
e 12 40
e 12 43
e 12 49
e 13 14
e 13 23
e 13 27
e 13 31
e 13 45
e 14 18
e 14 20
e 14 28
e 14 34
e 14 37
e 14 47
e 15 18
e 15 21
e 15 23
e 15 24
e 15 25
e 15 32
e 16 29
e 16 35
e 16 38
e 16 41
e 17 25
e 17 26
e 17 30
e 18 19
e 18 20
e 18 35
e 19 24
e 19 36
e 19 39
e 19 43
e 20 21
e 20 44
e 20 48
e 21 42
e 21 47
e 21 49
e 22 29
e 22 34
e 23 32
e 24 33
e 25 27
e 25 46
e 26 40
e 26 43
e 27 44
e 27 48
e 28 49
e 29 46
e 30 42
e 31 45
e 32 36
e 33 43
e 34 44
e 35 47
e 36 45
n 5 3
n 6 3
n 8 3
n 9 3
n 15 3
n 17 3
n 25 3
n 28 3
n 29 3
n 32 3
n 36 3
n 38 1
n 40 7
n 42 5
n 43 4
n 44 2
n 46 3
n 47 6
n 48 3
n 50 3
